(set-logic ALL)
(declare-fun var0 () String)
(assert (str.in_re var0 (re.++ (re.* (re.+ (str.to_re "000"))) (re.++ (re.+ (re.* (str.to_re "111"))) (re.++ (re.+ (re.* (str.to_re "222"))) (re.++ (re.+ (re.union (str.to_re "333") (str.to_re "44"))) (re.++ (re.* (re.* (str.to_re "555"))) (re.++ (re.+ (re.+ (str.to_re "66"))) (re.++ (re.union (re.union (str.to_re "77") (str.to_re "888")) (re.union (str.to_re "99") (str.to_re "aa"))) (re.++ (re.+ (re.union (str.to_re "bb") (str.to_re "c"))) (re.++ (re.+ (re.* (str.to_re "ddd"))) (re.++ (re.* (re.+ (str.to_re "ee"))) (re.++ (re.+ (re.* (str.to_re "f"))) (re.++ (re.union (re.+ (str.to_re "g")) (re.+ (str.to_re "hh"))) (re.++ (re.union (re.+ (str.to_re "ii")) (re.+ (str.to_re "jj"))) (re.++ (re.* (re.+ (str.to_re "kk"))) (re.++ (re.+ (re.union (str.to_re "lll") (str.to_re "mmm"))) (re.++ (re.* (re.union (str.to_re "nnn") (str.to_re "oo"))) (re.++ (re.union (re.* (str.to_re "p")) (re.* (str.to_re "qqq"))) (re.++ (re.* (re.* (str.to_re "rrr"))) (re.++ (re.+ (re.+ (str.to_re "s"))) (re.++ (re.+ (re.+ (str.to_re "t"))) (re.++ (re.* (re.union (str.to_re "uu") (str.to_re "vvv"))) (re.++ (re.+ (re.+ (str.to_re "ww"))) (re.++ (re.* (re.+ (str.to_re "xxx"))) (re.++ (re.+ (re.union (str.to_re "yyy") (str.to_re "z"))) (re.++ (re.union (re.union (str.to_re "AAA") (str.to_re "BBB")) (re.union (str.to_re "CCC") (str.to_re "DD"))) (re.++ (re.union (re.+ (str.to_re "E")) (re.+ (str.to_re "FFF"))) (re.++ (re.* (re.* (str.to_re "GG"))) (re.++ (re.+ (re.+ (str.to_re "HHH"))) (re.++ (re.* (re.* (str.to_re "II"))) (re.++ (re.+ (re.* (str.to_re "J"))) (re.++ (re.* (re.union (str.to_re "KKK") (str.to_re "L"))) (re.++ (re.+ (re.* (str.to_re "MMM"))) (re.++ (re.+ (re.union (str.to_re "NNN") (str.to_re "OOO"))) (re.++ (re.+ (re.* (str.to_re "P"))) (re.++ (re.* (re.+ (str.to_re "Q"))) (re.++ (re.* (re.+ (str.to_re "R"))) (re.++ (re.+ (re.* (str.to_re "SSS"))) (re.++ (re.+ (re.+ (str.to_re "TT"))) (re.++ (re.* (re.+ (str.to_re "UU"))) (re.++ (re.* (re.union (str.to_re "V") (str.to_re "W"))) (re.++ (re.+ (re.* (str.to_re "XXX"))) (re.++ (re.* (re.union (str.to_re "YYY") (str.to_re "Z"))) (re.++ (re.+ (re.union (str.to_re "!!!") (str.to_re """"))) (re.++ (re.union (re.* (str.to_re "###")) (re.* (str.to_re "$"))) (re.++ (re.+ (re.+ (str.to_re "%"))) (re.++ (re.union (re.* (str.to_re "&&")) (re.* (str.to_re "'"))) (re.++ (re.+ (re.union (str.to_re "(((") (str.to_re ")))"))) (re.++ (re.+ (re.union (str.to_re "**") (str.to_re "+++"))) (re.++ (re.* (re.* (str.to_re ",,,"))) (re.++ (re.union (re.* (str.to_re "---")) (re.* (str.to_re "."))) (re.++ (re.union (re.* (str.to_re "///")) (re.* (str.to_re ":"))) (re.++ (re.union (re.union (str.to_re ";;;") (str.to_re "<<")) (re.union (str.to_re "=") (str.to_re ">>>"))) (re.++ (re.* (re.union (str.to_re "??") (str.to_re "@@"))) (re.++ (re.+ (re.* (str.to_re "["))) (re.++ (re.+ (re.union (str.to_re "\\\\") (str.to_re "]"))) (re.++ (re.* (re.union (str.to_re "^") (str.to_re "___"))) (re.++ (re.+ (re.* (str.to_re "``"))) (re.++ (re.union (re.+ (str.to_re "{")) (re.+ (str.to_re "||"))) (re.++ (re.+ (re.union (str.to_re "}}}") (str.to_re "~~~"))) (re.++ (re.union (re.+ (str.to_re "000")) (re.+ (str.to_re "11"))) (re.++ (re.* (re.union (str.to_re "222") (str.to_re "33"))) (re.++ (re.+ (re.union (str.to_re "444") (str.to_re "55"))) (re.++ (re.+ (re.* (str.to_re "666"))) (re.++ (re.union (re.+ (str.to_re "777")) (re.+ (str.to_re "88"))) (re.++ (re.union (re.* (str.to_re "9")) (re.* (str.to_re "a"))) (re.++ (re.* (re.* (str.to_re "bbb"))) (re.++ (re.* (re.* (str.to_re "ccc"))) (re.++ (re.union (re.* (str.to_re "dd")) (re.* (str.to_re "eee"))) (re.++ (re.+ (re.* (str.to_re "ff"))) (re.++ (re.union (re.* (str.to_re "g")) (re.* (str.to_re "hhh"))) (re.* (re.union (str.to_re "ii") (str.to_re "j")))))))))))))))))))))))))))))))))))))))))))))))))))))))))))))))))))))))))))
(check-sat)